cases/matpower/case30.m
ipopt
DCP
[info | PowerModels]: removing 3 cost terms from generator 4: Float64[]
[info | PowerModels]: removing 1 cost terms from generator 1: [52.1378, 0.0]
[info | PowerModels]: removing 3 cost terms from generator 5: Float64[]
[info | PowerModels]: removing 1 cost terms from generator 2: [113.51659999999998, 0.0]
[info | PowerModels]: removing 3 cost terms from generator 6: Float64[]
[info | PowerModels]: removing 3 cost terms from generator 3: Float64[]

******************************************************************************
This program contains Ipopt, a library for large-scale nonlinear optimization.
 Ipopt is released as open source code under the Eclipse Public License (EPL).
         For more information visit http://projects.coin-or.org/Ipopt
******************************************************************************

This is Ipopt version 3.13.2, running with linear solver mumps.
NOTE: Other linear solvers might be more efficient (see Ipopt documentation).

Number of nonzeros in equality constraint Jacobian...:      208
Number of nonzeros in inequality constraint Jacobian.:      164
Number of nonzeros in Lagrangian Hessian.............:        0

Total number of variables............................:       73
                     variables with only lower bounds:        0
                variables with lower and upper bounds:       43
                     variables with only upper bounds:        0
Total number of equality constraints.................:       72
Total number of inequality constraints...............:       82
        inequality constraints with only lower bounds:       41
   inequality constraints with lower and upper bounds:        0
        inequality constraints with only upper bounds:       41

iter    objective    inf_pr   inf_du lg(mu)  ||d||  lg(rg) alpha_du alpha_pr  ls
   0  1.6565423e+00 9.42e-01 1.92e+01  -1.0 0.00e+00    -  0.00e+00 0.00e+00   0
   1  1.8807125e+02 1.31e-01 1.37e+02  -1.0 1.68e+00    -  6.25e-03 8.61e-01h  1
   2  1.7635640e+02 4.15e-02 4.29e+01  -1.0 1.00e+00    -  1.88e-02 6.84e-01f  1
   3  1.7623936e+02 4.06e-02 5.74e+01  -1.0 3.18e-01    -  9.41e-01 2.16e-02h  1
   4  1.8882456e+02 1.78e-15 1.00e-06  -1.0 1.02e-01    -  1.00e+00 1.00e+00h  1
   5  1.8870746e+02 1.78e-15 2.83e-08  -2.5 1.91e-03    -  1.00e+00 1.00e+00f  1
   6  1.8870405e+02 1.78e-15 1.50e-09  -3.8 5.56e-05    -  1.00e+00 1.00e+00f  1
   7  1.8870388e+02 1.78e-15 1.84e-11  -5.7 2.75e-06    -  1.00e+00 1.00e+00f  1
   8  1.8870388e+02 8.88e-16 2.51e-14  -8.6 3.41e-08    -  1.00e+00 1.00e+00f  1

Number of Iterations....: 8

                                   (scaled)                 (unscaled)
Objective...............:   1.6623461073086813e+02    1.8870387812491663e+02
Dual infeasibility......:   2.5059035640133008e-14    2.8446165251467220e-14
Constraint violation....:   8.8817841970012523e-16    8.8817841970012523e-16
Complementarity.........:   2.5060140040208519e-09    2.8447418928883342e-09
Overall NLP error.......:   2.5060140040208519e-09    2.8447418928883342e-09


Number of objective function evaluations             = 9
Number of objective gradient evaluations             = 9
Number of equality constraint evaluations            = 9
Number of inequality constraint evaluations          = 9
Number of equality constraint Jacobian evaluations   = 1
Number of inequality constraint Jacobian evaluations = 1
Number of Lagrangian Hessian evaluations             = 1
Total CPU secs in IPOPT (w/o function evaluations)   =      0.257
Total CPU secs in NLP function evaluations           =      0.211

EXIT: Optimal Solution Found.
Time to Solution........:1.1194109916687012
